Traveling Salesman Problem/TSP_generados/Aleatorio1621103776_18.tsp
NAME: Aleatorio1621103776_18.tsp
COMMENT: Randomly generated scenario
TYPE: TSP
DIMENSION: 18
EDGE_WEIGHT_TYPE: ATT
NODE_COORD_SECTION
1 41.04 45.39
2 28.8 5.12
3 35.8 39.77
4 35.33 22.69
5 29.77 15.05
6 32.78 13.18
7 6.91 32.11
8 39.58 11.64
9 19.02 16.42
10 1.03 43.17
11 33.81 22.63
12 18.46 40.73
13 22.9 19.95
14 14.19 35.94
15 46.72 3.19
16 33.5 7.62
17 34.52 49.07
18 23.06 0.59
