Traveling Salesman Problem/TSP_generados/Aleatorio1621103776_18.opt.tour
NAME: Aleatorio1621103776_18.opt.tour
COMMENT: Optimal solution for Aleatorio1621103776_18 (184.25029392019323)
TYPE: TOUR
DIMENSION: 18
TOUR_SECTION
1 3 4 11 5 6 8 15 16 2 18 9 13 7 10 14 12 17
-1
EOF
